<number of tasks>
50

<cycle time>
1000

<order strength>
0.197


<task times>
1 50
2 85
3 98
4 196
5 148
6 140
7 33
8 193
9 63
10 207
11 100
12 84
13 24
14 167
15 92
16 84
17 196
18 73
19 64
20 250
21 108
22 42
23 65
24 82
25 138
26 206
27 123
28 202
29 240
30 44
31 187
32 180
33 24
34 270
35 179
36 262
37 66
38 67
39 309
40 97
41 149
42 79
43 106
44 236
45 63
46 259
47 114
48 204
49 111
50 164

<precedence relations>
1,6
2,7
3,9
3,10
3,11
5,8
6,13
7,14
9,12
10,15
11,16
12,36
13,17
14,18
15,19
15,21
16,20
17,24
18,25
19,26
20,27
21,22
21,23
22,36
23,36
24,28
25,29
26,30
27,31
27,32
27,33
27,34
27,35
28,36
29,37
30,38
31,42
32,41
33,39
35,40
36,43
36,44
36,45
36,46
36,49
37,48
39,47
39,50

<end>
